p cnf 200 1110
-101 39 0
-101 72 0
-101 2 0
-101 -34 0
-101 -45 0
-101 67 0
-101 -7 0
-101 60 0
-101 26 0
-101 -20 0
101 -39 -72 -2 34 45 -67 7 -60 -26 20 0
-102 43 0
-102 -19 0
-102 -81 0
-102 31 0
-102 -87 0
-102 75 0
-102 -49 0
-102 -79 0
-102 83 0
-102 -82 0
102 -43 19 81 -31 87 -75 49 79 -83 82 0
-103 82 0
-103 -44 0
-103 76 0
-103 -89 0
-103 -11 0
-103 -87 0
-103 -53 0
-103 -68 0
-103 27 0
-103 -42 0
103 -82 44 -76 89 11 87 53 68 -27 42 0
-104 84 0
-104 48 0
-104 -42 0
-104 -10 0
-104 -72 0
-104 82 0
-104 -2 0
-104 47 0
-104 -67 0
-104 -79 0
104 -84 -48 42 10 72 -82 2 -47 67 79 0
-105 -72 0
-105 -64 0
-105 71 0
-105 -19 0
-105 -11 0
-105 -61 0
-105 -18 0
-105 76 0
-105 73 0
-105 -94 0
105 72 64 -71 19 11 61 18 -76 -73 94 0
-106 -63 0
-106 5 0
-106 26 0
-106 -84 0
-106 -95 0
-106 53 0
-106 54 0
-106 16 0
-106 -71 0
-106 -59 0
106 63 -5 -26 84 95 -53 -54 -16 71 59 0
-107 12 0
-107 40 0
-107 -87 0
-107 5 0
-107 58 0
-107 -51 0
-107 34 0
-107 -27 0
-107 -37 0
-107 -90 0
107 -12 -40 87 -5 -58 51 -34 27 37 90 0
-108 -74 0
-108 99 0
-108 88 0
-108 66 0
-108 -90 0
-108 -76 0
-108 -98 0
-108 50 0
-108 -16 0
-108 32 0
108 74 -99 -88 -66 90 76 98 -50 16 -32 0
-109 -54 0
-109 85 0
-109 50 0
-109 16 0
-109 52 0
-109 49 0
-109 -42 0
-109 33 0
-109 99 0
-109 -60 0
109 54 -85 -50 -16 -52 -49 42 -33 -99 60 0
-110 -64 0
-110 58 0
-110 -86 0
-110 -41 0
-110 97 0
-110 34 0
-110 -88 0
-110 -43 0
-110 -3 0
-110 12 0
110 64 -58 86 41 -97 -34 88 43 3 -12 0
101 102 103 104 105 106 107 108 109 110 0
-111 72 0
-111 -14 0
-111 -34 0
-111 -37 0
-111 -28 0
-111 -67 0
-111 100 0
-111 87 0
-111 -9 0
-111 -97 0
111 -72 14 34 37 28 67 -100 -87 9 97 0
-112 100 0
-112 92 0
-112 -25 0
-112 37 0
-112 96 0
-112 43 0
-112 76 0
-112 73 0
-112 88 0
-112 -16 0
112 -100 -92 25 -37 -96 -43 -76 -73 -88 16 0
-113 -37 0
-113 6 0
-113 -100 0
-113 -88 0
-113 20 0
-113 -59 0
-113 24 0
-113 -64 0
-113 27 0
-113 -69 0
113 37 -6 100 88 -20 59 -24 64 -27 69 0
-114 57 0
-114 -37 0
-114 -51 0
-114 95 0
-114 -22 0
-114 42 0
-114 -9 0
-114 -30 0
-114 -1 0
-114 -6 0
114 -57 37 51 -95 22 -42 9 30 1 6 0
-115 -8 0
-115 96 0
-115 54 0
-115 29 0
-115 -66 0
-115 50 0
-115 9 0
-115 -44 0
-115 36 0
-115 -75 0
115 8 -96 -54 -29 66 -50 -9 44 -36 75 0
-116 -1 0
-116 -71 0
-116 -61 0
-116 -64 0
-116 69 0
-116 -77 0
-116 -23 0
-116 -83 0
-116 -27 0
-116 -32 0
116 1 71 61 64 -69 77 23 83 27 32 0
-117 91 0
-117 2 0
-117 -85 0
-117 86 0
-117 48 0
-117 -35 0
-117 -25 0
-117 -12 0
-117 -32 0
-117 -95 0
117 -91 -2 85 -86 -48 35 25 12 32 95 0
-118 47 0
-118 43 0
-118 -3 0
-118 73 0
-118 -87 0
-118 71 0
-118 -18 0
-118 98 0
-118 5 0
-118 -62 0
118 -47 -43 3 -73 87 -71 18 -98 -5 62 0
-119 45 0
-119 76 0
-119 -71 0
-119 55 0
-119 -75 0
-119 -4 0
-119 -50 0
-119 77 0
-119 -28 0
-119 -58 0
119 -45 -76 71 -55 75 4 50 -77 28 58 0
-120 -86 0
-120 84 0
-120 -30 0
-120 33 0
-120 61 0
-120 4 0
-120 -10 0
-120 -5 0
-120 -41 0
-120 -42 0
120 86 -84 30 -33 -61 -4 10 5 41 42 0
111 112 113 114 115 116 117 118 119 120 0
-121 -19 0
-121 77 0
-121 70 0
-121 13 0
-121 81 0
-121 38 0
-121 65 0
-121 78 0
-121 7 0
-121 -64 0
121 19 -77 -70 -13 -81 -38 -65 -78 -7 64 0
-122 -84 0
-122 5 0
-122 -60 0
-122 9 0
-122 -56 0
-122 86 0
-122 -64 0
-122 51 0
-122 -33 0
-122 46 0
122 84 -5 60 -9 56 -86 64 -51 33 -46 0
-123 -73 0
-123 -70 0
-123 21 0
-123 12 0
-123 92 0
-123 -2 0
-123 -54 0
-123 -25 0
-123 42 0
-123 16 0
123 73 70 -21 -12 -92 2 54 25 -42 -16 0
-124 -6 0
-124 13 0
-124 86 0
-124 -42 0
-124 16 0
-124 72 0
-124 59 0
-124 -82 0
-124 89 0
-124 -57 0
124 6 -13 -86 42 -16 -72 -59 82 -89 57 0
-125 7 0
-125 -85 0
-125 81 0
-125 27 0
-125 -84 0
-125 -57 0
-125 70 0
-125 68 0
-125 -40 0
-125 33 0
125 -7 85 -81 -27 84 57 -70 -68 40 -33 0
-126 -33 0
-126 -96 0
-126 -58 0
-126 -13 0
-126 -1 0
-126 68 0
-126 81 0
-126 -12 0
-126 66 0
-126 85 0
126 33 96 58 13 1 -68 -81 12 -66 -85 0
-127 -81 0
-127 8 0
-127 -31 0
-127 -79 0
-127 2 0
-127 6 0
-127 5 0
-127 -56 0
-127 -10 0
-127 -32 0
127 81 -8 31 79 -2 -6 -5 56 10 32 0
-128 -18 0
-128 73 0
-128 77 0
-128 8 0
-128 -83 0
-128 53 0
-128 78 0
-128 -52 0
-128 -15 0
-128 -95 0
128 18 -73 -77 -8 83 -53 -78 52 15 95 0
-129 -68 0
-129 26 0
-129 -89 0
-129 -98 0
-129 -60 0
-129 59 0
-129 38 0
-129 92 0
-129 15 0
-129 29 0
129 68 -26 89 98 60 -59 -38 -92 -15 -29 0
-130 -97 0
-130 49 0
-130 -50 0
-130 70 0
-130 12 0
-130 23 0
-130 16 0
-130 56 0
-130 43 0
-130 21 0
130 97 -49 50 -70 -12 -23 -16 -56 -43 -21 0
121 122 123 124 125 126 127 128 129 130 0
-131 -69 0
-131 -6 0
-131 -25 0
-131 63 0
-131 37 0
-131 -59 0
-131 56 0
-131 12 0
-131 1 0
-131 -48 0
131 69 6 25 -63 -37 59 -56 -12 -1 48 0
-132 -45 0
-132 -90 0
-132 28 0
-132 -94 0
-132 82 0
-132 87 0
-132 -67 0
-132 -24 0
-132 -62 0
-132 -34 0
132 45 90 -28 94 -82 -87 67 24 62 34 0
-133 40 0
-133 90 0
-133 -43 0
-133 58 0
-133 -66 0
-133 27 0
-133 56 0
-133 -31 0
-133 -29 0
-133 -89 0
133 -40 -90 43 -58 66 -27 -56 31 29 89 0
-134 19 0
-134 -86 0
-134 -96 0
-134 -73 0
-134 26 0
-134 -30 0
-134 100 0
-134 -68 0
-134 -87 0
-134 -63 0
134 -19 86 96 73 -26 30 -100 68 87 63 0
-135 61 0
-135 -75 0
-135 25 0
-135 -19 0
-135 37 0
-135 44 0
-135 98 0
-135 21 0
-135 -47 0
-135 76 0
135 -61 75 -25 19 -37 -44 -98 -21 47 -76 0
-136 -69 0
-136 40 0
-136 -85 0
-136 83 0
-136 50 0
-136 94 0
-136 -27 0
-136 51 0
-136 -11 0
-136 87 0
136 69 -40 85 -83 -50 -94 27 -51 11 -87 0
-137 -53 0
-137 -22 0
-137 -35 0
-137 48 0
-137 -17 0
-137 30 0
-137 -58 0
-137 -90 0
-137 92 0
-137 -32 0
137 53 22 35 -48 17 -30 58 90 -92 32 0
-138 -78 0
-138 15 0
-138 19 0
-138 -8 0
-138 37 0
-138 29 0
-138 92 0
-138 -13 0
-138 54 0
-138 -68 0
138 78 -15 -19 8 -37 -29 -92 13 -54 68 0
-139 -8 0
-139 43 0
-139 -39 0
-139 -70 0
-139 -16 0
-139 -18 0
-139 -81 0
-139 6 0
-139 90 0
-139 -49 0
139 8 -43 39 70 16 18 81 -6 -90 49 0
-140 61 0
-140 -91 0
-140 6 0
-140 -98 0
-140 10 0
-140 87 0
-140 15 0
-140 34 0
-140 -22 0
-140 -19 0
140 -61 91 -6 98 -10 -87 -15 -34 22 19 0
131 132 133 134 135 136 137 138 139 140 0
-141 80 0
-141 -41 0
-141 97 0
-141 37 0
-141 -60 0
-141 -76 0
-141 46 0
-141 -27 0
-141 50 0
-141 19 0
141 -80 41 -97 -37 60 76 -46 27 -50 -19 0
-142 97 0
-142 59 0
-142 -83 0
-142 -36 0
-142 55 0
-142 85 0
-142 -47 0
-142 -96 0
-142 -91 0
-142 -13 0
142 -97 -59 83 36 -55 -85 47 96 91 13 0
-143 -53 0
-143 31 0
-143 83 0
-143 -17 0
-143 94 0
-143 -72 0
-143 86 0
-143 46 0
-143 2 0
-143 -62 0
143 53 -31 -83 17 -94 72 -86 -46 -2 62 0
-144 30 0
-144 -88 0
-144 -76 0
-144 23 0
-144 13 0
-144 16 0
-144 -69 0
-144 78 0
-144 -81 0
-144 7 0
144 -30 88 76 -23 -13 -16 69 -78 81 -7 0
-145 65 0
-145 -94 0
-145 81 0
-145 -45 0
-145 -90 0
-145 95 0
-145 96 0
-145 -32 0
-145 86 0
-145 38 0
145 -65 94 -81 45 90 -95 -96 32 -86 -38 0
-146 -11 0
-146 49 0
-146 42 0
-146 25 0
-146 -12 0
-146 87 0
-146 67 0
-146 78 0
-146 83 0
-146 61 0
146 11 -49 -42 -25 12 -87 -67 -78 -83 -61 0
-147 79 0
-147 -27 0
-147 73 0
-147 -90 0
-147 -26 0
-147 -100 0
-147 -56 0
-147 32 0
-147 38 0
-147 -14 0
147 -79 27 -73 90 26 100 56 -32 -38 14 0
-148 68 0
-148 43 0
-148 -9 0
-148 -20 0
-148 86 0
-148 84 0
-148 24 0
-148 -1 0
-148 33 0
-148 -48 0
148 -68 -43 9 20 -86 -84 -24 1 -33 48 0
-149 95 0
-149 -22 0
-149 54 0
-149 -1 0
-149 85 0
-149 75 0
-149 33 0
-149 61 0
-149 50 0
-149 -15 0
149 -95 22 -54 1 -85 -75 -33 -61 -50 15 0
-150 -43 0
-150 -24 0
-150 9 0
-150 66 0
-150 -91 0
-150 -68 0
-150 21 0
-150 48 0
-150 -99 0
-150 88 0
150 43 24 -9 -66 91 68 -21 -48 99 -88 0
141 142 143 144 145 146 147 148 149 150 0
-151 57 0
-151 92 0
-151 -75 0
-151 94 0
-151 -53 0
-151 -84 0
-151 2 0
-151 19 0
-151 97 0
-151 -98 0
151 -57 -92 75 -94 53 84 -2 -19 -97 98 0
-152 -15 0
-152 -74 0
-152 3 0
-152 44 0
-152 41 0
-152 82 0
-152 -17 0
-152 -13 0
-152 99 0
-152 -79 0
152 15 74 -3 -44 -41 -82 17 13 -99 79 0
-153 -36 0
-153 73 0
-153 -98 0
-153 -71 0
-153 40 0
-153 35 0
-153 -17 0
-153 16 0
-153 -4 0
-153 96 0
153 36 -73 98 71 -40 -35 17 -16 4 -96 0
-154 -14 0
-154 66 0
-154 -72 0
-154 7 0
-154 -64 0
-154 -95 0
-154 79 0
-154 5 0
-154 -97 0
-154 -92 0
154 14 -66 72 -7 64 95 -79 -5 97 92 0
-155 -44 0
-155 4 0
-155 -62 0
-155 -24 0
-155 -39 0
-155 65 0
-155 52 0
-155 25 0
-155 -55 0
-155 -59 0
155 44 -4 62 24 39 -65 -52 -25 55 59 0
-156 -59 0
-156 84 0
-156 -31 0
-156 -92 0
-156 83 0
-156 -70 0
-156 14 0
-156 80 0
-156 56 0
-156 -11 0
156 59 -84 31 92 -83 70 -14 -80 -56 11 0
-157 -41 0
-157 -55 0
-157 -31 0
-157 47 0
-157 -73 0
-157 -93 0
-157 60 0
-157 50 0
-157 51 0
-157 -69 0
157 41 55 31 -47 73 93 -60 -50 -51 69 0
-158 -35 0
-158 -93 0
-158 82 0
-158 -28 0
-158 -22 0
-158 91 0
-158 -32 0
-158 81 0
-158 -38 0
-158 85 0
158 35 93 -82 28 22 -91 32 -81 38 -85 0
-159 43 0
-159 40 0
-159 11 0
-159 47 0
-159 72 0
-159 -93 0
-159 87 0
-159 33 0
-159 39 0
-159 -84 0
159 -43 -40 -11 -47 -72 93 -87 -33 -39 84 0
-160 75 0
-160 -66 0
-160 -83 0
-160 -64 0
-160 79 0
-160 45 0
-160 100 0
-160 -89 0
-160 -36 0
-160 -60 0
160 -75 66 83 64 -79 -45 -100 89 36 60 0
151 152 153 154 155 156 157 158 159 160 0
-161 55 0
-161 -80 0
-161 16 0
-161 90 0
-161 70 0
-161 76 0
-161 77 0
-161 84 0
-161 29 0
-161 89 0
161 -55 80 -16 -90 -70 -76 -77 -84 -29 -89 0
-162 -59 0
-162 6 0
-162 -41 0
-162 -33 0
-162 -72 0
-162 -30 0
-162 -83 0
-162 81 0
-162 -5 0
-162 -20 0
162 59 -6 41 33 72 30 83 -81 5 20 0
-163 95 0
-163 6 0
-163 46 0
-163 30 0
-163 41 0
-163 -88 0
-163 -92 0
-163 47 0
-163 -85 0
-163 -27 0
163 -95 -6 -46 -30 -41 88 92 -47 85 27 0
-164 -18 0
-164 97 0
-164 40 0
-164 86 0
-164 -51 0
-164 -49 0
-164 -24 0
-164 -17 0
-164 28 0
-164 -96 0
164 18 -97 -40 -86 51 49 24 17 -28 96 0
-165 6 0
-165 -5 0
-165 40 0
-165 41 0
-165 74 0
-165 -85 0
-165 49 0
-165 -59 0
-165 -88 0
-165 -72 0
165 -6 5 -40 -41 -74 85 -49 59 88 72 0
-166 -38 0
-166 -17 0
-166 -51 0
-166 -3 0
-166 36 0
-166 94 0
-166 54 0
-166 -32 0
-166 31 0
-166 12 0
166 38 17 51 3 -36 -94 -54 32 -31 -12 0
-167 45 0
-167 -66 0
-167 84 0
-167 22 0
-167 79 0
-167 -70 0
-167 2 0
-167 -48 0
-167 43 0
-167 -17 0
167 -45 66 -84 -22 -79 70 -2 48 -43 17 0
-168 86 0
-168 -56 0
-168 16 0
-168 -11 0
-168 -8 0
-168 44 0
-168 -82 0
-168 -39 0
-168 -42 0
-168 -92 0
168 -86 56 -16 11 8 -44 82 39 42 92 0
-169 68 0
-169 -93 0
-169 86 0
-169 -51 0
-169 21 0
-169 -38 0
-169 10 0
-169 -82 0
-169 -13 0
-169 52 0
169 -68 93 -86 51 -21 38 -10 82 13 -52 0
-170 -73 0
-170 -54 0
-170 40 0
-170 -92 0
-170 -52 0
-170 -24 0
-170 31 0
-170 57 0
-170 68 0
-170 16 0
170 73 54 -40 92 52 24 -31 -57 -68 -16 0
161 162 163 164 165 166 167 168 169 170 0
-171 58 0
-171 -3 0
-171 46 0
-171 -74 0
-171 -41 0
-171 14 0
-171 98 0
-171 10 0
-171 19 0
-171 -6 0
171 -58 3 -46 74 41 -14 -98 -10 -19 6 0
-172 -92 0
-172 -44 0
-172 56 0
-172 -36 0
-172 -32 0
-172 -93 0
-172 -26 0
-172 -45 0
-172 51 0
-172 19 0
172 92 44 -56 36 32 93 26 45 -51 -19 0
-173 41 0
-173 -84 0
-173 -49 0
-173 -61 0
-173 -17 0
-173 -79 0
-173 66 0
-173 -33 0
-173 36 0
-173 -95 0
173 -41 84 49 61 17 79 -66 33 -36 95 0
-174 -95 0
-174 -75 0
-174 50 0
-174 -30 0
-174 -51 0
-174 -1 0
-174 3 0
-174 10 0
-174 80 0
-174 -6 0
174 95 75 -50 30 51 1 -3 -10 -80 6 0
-175 -97 0
-175 53 0
-175 5 0
-175 -41 0
-175 -60 0
-175 56 0
-175 91 0
-175 -61 0
-175 -47 0
-175 14 0
175 97 -53 -5 41 60 -56 -91 61 47 -14 0
-176 65 0
-176 28 0
-176 66 0
-176 -32 0
-176 14 0
-176 70 0
-176 23 0
-176 -84 0
-176 52 0
-176 24 0
176 -65 -28 -66 32 -14 -70 -23 84 -52 -24 0
-177 47 0
-177 -75 0
-177 -13 0
-177 3 0
-177 -12 0
-177 44 0
-177 23 0
-177 76 0
-177 -34 0
-177 -9 0
177 -47 75 13 -3 12 -44 -23 -76 34 9 0
-178 49 0
-178 52 0
-178 -100 0
-178 99 0
-178 93 0
-178 62 0
-178 30 0
-178 -95 0
-178 -97 0
-178 -46 0
178 -49 -52 100 -99 -93 -62 -30 95 97 46 0
-179 22 0
-179 33 0
-179 64 0
-179 -9 0
-179 88 0
-179 93 0
-179 15 0
-179 -80 0
-179 39 0
-179 -67 0
179 -22 -33 -64 9 -88 -93 -15 80 -39 67 0
-180 -6 0
-180 40 0
-180 -84 0
-180 69 0
-180 62 0
-180 -8 0
-180 -20 0
-180 53 0
-180 99 0
-180 -76 0
180 6 -40 84 -69 -62 8 20 -53 -99 76 0
171 172 173 174 175 176 177 178 179 180 0
-181 40 0
-181 58 0
-181 21 0
-181 -46 0
-181 -47 0
-181 -100 0
-181 39 0
-181 13 0
-181 5 0
-181 44 0
181 -40 -58 -21 46 47 100 -39 -13 -5 -44 0
-182 19 0
-182 21 0
-182 7 0
-182 -54 0
-182 -72 0
-182 -38 0
-182 -45 0
-182 -50 0
-182 32 0
-182 42 0
182 -19 -21 -7 54 72 38 45 50 -32 -42 0
-183 -15 0
-183 68 0
-183 58 0
-183 -48 0
-183 -89 0
-183 92 0
-183 31 0
-183 10 0
-183 4 0
-183 24 0
183 15 -68 -58 48 89 -92 -31 -10 -4 -24 0
-184 -43 0
-184 64 0
-184 -65 0
-184 -74 0
-184 39 0
-184 19 0
-184 -34 0
-184 -41 0
-184 -66 0
-184 33 0
184 43 -64 65 74 -39 -19 34 41 66 -33 0
-185 56 0
-185 -21 0
-185 37 0
-185 -86 0
-185 29 0
-185 73 0
-185 -41 0
-185 58 0
-185 -5 0
-185 -89 0
185 -56 21 -37 86 -29 -73 41 -58 5 89 0
-186 -61 0
-186 -63 0
-186 -67 0
-186 -86 0
-186 -15 0
-186 -26 0
-186 79 0
-186 43 0
-186 -69 0
-186 74 0
186 61 63 67 86 15 26 -79 -43 69 -74 0
-187 23 0
-187 64 0
-187 86 0
-187 -46 0
-187 -59 0
-187 -76 0
-187 84 0
-187 10 0
-187 -71 0
-187 -32 0
187 -23 -64 -86 46 59 76 -84 -10 71 32 0
-188 16 0
-188 65 0
-188 -5 0
-188 -52 0
-188 64 0
-188 -63 0
-188 61 0
-188 -14 0
-188 41 0
-188 -7 0
188 -16 -65 5 52 -64 63 -61 14 -41 7 0
-189 59 0
-189 -91 0
-189 23 0
-189 14 0
-189 -1 0
-189 -15 0
-189 -63 0
-189 24 0
-189 95 0
-189 -9 0
189 -59 91 -23 -14 1 15 63 -24 -95 9 0
-190 52 0
-190 4 0
-190 -88 0
-190 70 0
-190 -20 0
-190 5 0
-190 -8 0
-190 -1 0
-190 33 0
-190 60 0
190 -52 -4 88 -70 20 -5 8 1 -33 -60 0
181 182 183 184 185 186 187 188 189 190 0
-191 -65 0
-191 11 0
-191 71 0
-191 76 0
-191 -2 0
-191 60 0
-191 -95 0
-191 61 0
-191 -82 0
-191 -43 0
191 65 -11 -71 -76 2 -60 95 -61 82 43 0
-192 59 0
-192 -25 0
-192 63 0
-192 46 0
-192 -38 0
-192 29 0
-192 -53 0
-192 -12 0
-192 -5 0
-192 -49 0
192 -59 25 -63 -46 38 -29 53 12 5 49 0
-193 -95 0
-193 -56 0
-193 83 0
-193 90 0
-193 -61 0
-193 67 0
-193 23 0
-193 -8 0
-193 89 0
-193 41 0
193 95 56 -83 -90 61 -67 -23 8 -89 -41 0
-194 66 0
-194 -29 0
-194 -80 0
-194 45 0
-194 -40 0
-194 -85 0
-194 28 0
-194 -67 0
-194 -97 0
-194 74 0
194 -66 29 80 -45 40 85 -28 67 97 -74 0
-195 45 0
-195 -98 0
-195 -18 0
-195 -55 0
-195 -25 0
-195 16 0
-195 -19 0
-195 -99 0
-195 -30 0
-195 51 0
195 -45 98 18 55 25 -16 19 99 30 -51 0
-196 -43 0
-196 -33 0
-196 -28 0
-196 -83 0
-196 13 0
-196 -26 0
-196 -1 0
-196 -4 0
-196 67 0
-196 -20 0
196 43 33 28 83 -13 26 1 4 -67 20 0
-197 90 0
-197 46 0
-197 75 0
-197 -83 0
-197 -69 0
-197 -65 0
-197 -48 0
-197 47 0
-197 23 0
-197 61 0
197 -90 -46 -75 83 69 65 48 -47 -23 -61 0
-198 31 0
-198 43 0
-198 37 0
-198 -20 0
-198 -87 0
-198 86 0
-198 -97 0
-198 -92 0
-198 79 0
-198 -25 0
198 -31 -43 -37 20 87 -86 97 92 -79 25 0
-199 -47 0
-199 52 0
-199 49 0
-199 -61 0
-199 90 0
-199 72 0
-199 74 0
-199 80 0
-199 -10 0
-199 27 0
199 47 -52 -49 61 -90 -72 -74 -80 10 -27 0
-200 27 0
-200 88 0
-200 -21 0
-200 -98 0
-200 7 0
-200 41 0
-200 64 0
-200 16 0
-200 83 0
-200 2 0
200 -27 -88 21 98 -7 -41 -64 -16 -83 -2 0
191 192 193 194 195 196 197 198 199 200 0
